-1 633 -1 257 390 -1 91 661 228 -1 412 227
 169 383 -1 150 488 112 120 267 -1 80 572 196
 77 351 63 -1 134 530 154 105 309 34 29 -1
 259 555 372 175 338 264 232 249 -1 505 289 262
 476 196 360 444 402 495 -1 353 282 110 324 61
 208 292 250 352 154 -1 324 638 437 240 421 329
 297 314 95 578 435 -1 70 567 191 27 346 83
 47 68 189 439 287 254 -1 211 466 74 182 243
 105 150 108 326 336 184 391 145 -1 268 420 53
 239 199 123 207 165 383 240 140 448 202 57 -1
 246 745 472 237 528 364 332 349 202 685 542 157
 289 426 483 -1 121 518 142 84 297 35 29 36
 236 390 238 301 55 96 153 336 -1